p cnf 83 110
1 2 3 4 5 0
1 2 3 -4 8 0
1 2 -3 4 9 0
1 2 -3 -4 6 0
1 -2 3 4 7 0
1 -2 3 -4 10 0
1 -2 -3 4 10 0
1 -2 -3 -4 5 0
-1 2 3 4 11 0
-1 2 3 -4 7 0
12 13 14 15 1 2 3 4 16 0
12 13 14 15 1 2 3 -4 49 0
12 13 14 15 1 2 -3 4 48 0
12 13 14 15 1 2 -3 -4 47 0
12 13 14 15 1 -2 3 4 17 0
12 13 14 15 1 -2 3 -4 18 0
12 13 14 15 1 -2 -3 4 59 0
12 13 14 15 1 -2 -3 -4 29 0
12 13 14 15 -1 2 3 4 62 0
12 13 14 15 -1 2 3 -4 60 0
12 13 14 -15 1 2 3 4 50 0
12 13 14 -15 1 2 3 -4 51 0
12 13 14 -15 1 2 -3 4 19 0
12 13 14 -15 1 2 -3 -4 47 0
12 13 14 -15 1 -2 3 4 20 0
12 13 14 -15 1 -2 3 -4 22 0
12 13 14 -15 1 -2 -3 4 35 0
12 13 14 -15 1 -2 -3 -4 52 0
12 13 14 -15 -1 2 3 4 43 0
12 13 14 -15 -1 2 3 -4 21 0
12 13 -14 15 1 2 3 4 66 0
12 13 -14 15 1 2 3 -4 67 0
12 13 -14 15 1 2 -3 4 53 0
12 13 -14 15 1 2 -3 -4 54 0
12 13 -14 15 1 -2 3 4 23 0
12 13 -14 15 1 -2 3 -4 24 0
12 13 -14 15 1 -2 -3 4 18 0
12 13 -14 15 1 -2 -3 -4 68 0
12 13 -14 15 -1 2 3 4 25 0
12 13 -14 15 -1 2 3 -4 30 0
12 13 -14 -15 1 2 3 4 26 0
12 13 -14 -15 1 2 3 -4 55 0
12 13 -14 -15 1 2 -3 4 69 0
12 13 -14 -15 1 2 -3 -4 47 0
12 13 -14 -15 1 -2 3 4 56 0
12 13 -14 -15 1 -2 3 -4 59 0
12 13 -14 -15 1 -2 -3 4 70 0
12 13 -14 -15 1 -2 -3 -4 27 0
12 13 -14 -15 -1 2 3 4 65 0
12 13 -14 -15 -1 2 3 -4 78 0
12 -13 14 15 1 2 3 4 68 0
12 -13 14 15 1 2 3 -4 51 0
12 -13 14 15 1 2 -3 4 36 0
12 -13 14 15 1 2 -3 -4 31 0
12 -13 14 15 1 -2 3 4 73 0
12 -13 14 15 1 -2 3 -4 70 0
12 -13 14 15 1 -2 -3 4 32 0
12 -13 14 15 1 -2 -3 -4 28 0
12 -13 14 15 -1 2 3 4 71 0
12 -13 14 15 -1 2 3 -4 78 0
12 -13 14 -15 1 2 3 4 68 0
12 -13 14 -15 1 2 3 -4 67 0
12 -13 14 -15 1 2 -3 4 72 0
12 -13 14 -15 1 2 -3 -4 45 0
12 -13 14 -15 1 -2 3 4 30 0
12 -13 14 -15 1 -2 3 -4 32 0
12 -13 14 -15 1 -2 -3 4 24 0
12 -13 14 -15 1 -2 -3 -4 28 0
12 -13 14 -15 -1 2 3 4 64 0
12 -13 14 -15 -1 2 3 -4 74 0
12 -13 -14 15 1 2 3 4 29 0
12 -13 -14 15 1 2 3 -4 75 0
12 -13 -14 15 1 2 -3 4 33 0
12 -13 -14 15 1 2 -3 -4 45 0
12 -13 -14 15 1 -2 3 4 20 0
12 -13 -14 15 1 -2 3 -4 61 0
12 -13 -14 15 1 -2 -3 4 37 0
12 -13 -14 15 1 -2 -3 -4 66 0
12 -13 -14 15 -1 2 3 4 64 0
12 -13 -14 15 -1 2 3 -4 77 0
12 -13 -14 -15 1 2 3 4 38 0
12 -13 -14 -15 1 2 3 -4 79 0
12 -13 -14 -15 1 2 -3 4 19 0
12 -13 -14 -15 1 2 -3 -4 54 0
12 -13 -14 -15 1 -2 3 4 34 0
12 -13 -14 -15 1 -2 3 -4 40 0
12 -13 -14 -15 1 -2 -3 4 70 0
12 -13 -14 -15 1 -2 -3 -4 68 0
12 -13 -14 -15 -1 2 3 4 63 0
12 -13 -14 -15 -1 2 3 -4 39 0
-12 13 14 15 1 2 3 4 21 0
-12 13 14 15 1 2 3 -4 46 0
-12 13 14 15 1 2 -3 4 44 0
-12 13 14 15 1 2 -3 -4 45 0
-12 13 14 15 1 -2 3 4 80 0
-12 13 14 15 1 -2 3 -4 76 0
-12 13 14 15 1 -2 -3 4 41 0
-12 13 14 15 1 -2 -3 -4 52 0
-12 13 14 15 -1 2 3 4 42 0
-12 13 14 15 -1 2 3 -4 83 0
-12 13 14 -15 1 2 3 4 21 0
-12 13 14 -15 1 2 3 -4 21 0
-12 13 14 -15 1 2 -3 4 21 0
-12 13 14 -15 1 2 -3 -4 81 0
-12 13 14 -15 1 -2 3 4 58 0
-12 13 14 -15 1 -2 3 -4 35 0
-12 13 14 -15 1 -2 -3 4 32 0
-12 13 14 -15 1 -2 -3 -4 16 0
-12 13 14 -15 -1 2 3 4 82 0
-12 13 14 -15 -1 2 3 -4 57 0
